s td 90 10 99
b 1 1 2 12
b 2 10 11 22
b 3 78 89 90
b 4 88 98 99
b 5 2 3 12 13
b 6 9 10 21 22
b 7 3 4 14 26 38 50 62 74 86 96
b 8 4 14 16 26 38 50 62 74 86 96
b 9 4 16 26 28 38 50 62 74 86 96
b 10 4 16 28 38 40 50 62 74 86 96
b 11 4 16 28 40 50 52 62 74 86 96
b 12 4 16 28 40 52 62 64 74 86 96
b 13 4 16 28 40 52 64 74 76 86 96
b 14 4 16 28 40 52 64 76 77 86 96
b 15 4 6 16 28 40 52 64 76 77
b 16 4 5 6 16
b 17 6 16 18 28 40 52 64 76 77
b 18 6 18 28 30 40 52 64 76 77
b 19 6 18 30 40 52 64 65 76 77
b 20 6 18 30 40 52 53 64 65 77
b 21 6 18 30 40 41 52 53 65 77
b 22 6 18 30 41 53 55 65 77
b 23 6 18 30 41 43 53 55 65
b 24 6 18 30 41 42 43 53 55
b 25 6 8 18 30 42 43 55
b 26 6 7 8 18
b 27 8 18 20 30 42 43 55
b 28 8 20 30 31 42 43 55
b 29 8 20 31 33 43 55
b 30 8 20 31 32 33 43
b 31 8 20 21 32 33
b 32 8 9 20 21 33
b 33 9 21 22 33
b 34 33 43 44 55
b 35 8 18 19 20 30
b 36 43 53 54 55 65
b 37 55 65 66 77
b 38 18 28 29 30 40
b 39 6 16 17 18 28
b 40 76 77 86 96 98
b 41 76 77 86 87 98
b 42 86 96 97 98
b 43 64 74 75 76 86
b 44 52 62 63 64 74
b 45 40 50 51 52 62
b 46 28 38 39 40 50
b 47 16 26 27 28 38
b 48 4 14 15 16 26
b 49 3 14 26 38 50 62 74 84 86 96
b 50 3 14 26 38 50 62 72 74 84 96
b 51 3 14 26 38 50 60 62 72 84 96
b 52 3 14 26 38 48 50 60 72 84 96
b 53 3 14 26 36 38 48 60 72 84 96
b 54 3 14 24 26 36 48 60 72 84 96
b 55 3 12 14 24 36 48 60 72 84 96
b 56 3 12 13 14 24
b 57 12 24 36 48 60 72 84 94 96
b 58 12 24 36 48 60 72 82 84 94
b 59 12 24 36 48 60 70 72 82 94
b 60 12 24 36 48 58 60 70 82 94
b 61 12 24 36 46 48 58 70 82 94
b 62 12 24 36 45 46 58 70 82 94
b 63 12 24 34 36 45 46
b 64 12 23 24 34
b 65 24 34 35 36 46
b 66 45 46 58 70 82 92 94
b 67 45 46 58 70 80 82 92
b 68 45 46 58 69 70 80 92
b 69 45 46 57 58 69 80 92
b 70 45 57 67 69 80 92
b 71 45 56 57 67
b 72 57 67 68 69 80 92
b 73 67 68 80 90 92
b 74 67 68 79 80 90
b 75 80 90 91 92
b 76 70 80 81 82 92
b 77 82 92 93 94
b 78 36 46 47 48 58
b 79 48 58 59 60 70
b 80 60 70 71 72 82
b 81 72 82 83 84 94
b 82 84 94 95 96
b 83 14 24 25 26 36
b 84 26 36 37 38 48
b 85 38 48 49 50 60
b 86 50 60 61 62 72
b 87 62 72 73 74 84
b 88 74 84 85 86 96
b 89 67 78 79 90
b 90 77 87 88 98
1 5
2 6
3 89
4 90
5 56
6 33
7 8
7 49
8 9
8 48
9 10
9 47
10 11
10 46
11 12
11 45
12 13
12 44
13 14
13 43
14 15
14 40
15 16
15 17
17 18
17 39
18 19
18 38
19 20
20 21
21 22
22 23
22 37
23 24
23 36
24 25
25 26
25 27
27 28
27 35
28 29
29 30
29 34
30 31
31 32
32 33
40 41
40 42
41 90
49 50
49 88
50 51
50 87
51 52
51 86
52 53
52 85
53 54
53 84
54 55
54 83
55 56
55 57
57 58
57 82
58 59
58 81
59 60
59 80
60 61
60 79
61 62
61 78
62 63
62 66
63 64
63 65
66 67
66 77
67 68
67 76
68 69
69 70
70 71
70 72
72 73
73 74
73 75
74 89
